<number of tasks>
50

<cycle time>
1000

<order strength>
0.595


<task times>
1 77
2 144
3 62
4 232
5 37
6 131
7 199
8 29
9 398
10 83
11 80
12 142
13 157
14 135
15 270
16 127
17 52
18 198
19 323
20 168
21 78
22 145
23 52
24 31
25 76
26 142
27 47
28 121
29 200
30 184
31 30
32 132
33 74
34 241
35 66
36 127
37 138
38 59
39 154
40 113
41 300
42 187
43 83
44 224
45 117
46 213
47 149
48 126
49 63
50 194

<precedence relations>
1,39
2,5
2,6
3,5
3,6
4,5
4,6
5,22
6,7
6,8
6,9
6,10
7,38
8,39
9,11
9,12
9,13
9,14
10,11
10,12
10,13
10,14
11,22
12,22
13,15
13,16
13,17
14,15
14,16
14,17
15,38
16,18
16,19
16,20
16,21
17,18
17,19
17,20
17,21
18,22
19,38
20,39
21,22
21,23
21,24
21,25
21,26
21,27
22,28
22,29
22,30
22,31
22,32
22,33
22,34
23,38
24,38
25,34
25,37
26,34
26,37
27,34
27,37
28,35
28,37
29,35
29,36
30,35
31,35
31,37
32,38
33,37
33,39
34,35
34,36
34,40
35,38
36,39
37,40
37,41
38,42
38,43
38,44
38,45
39,46
39,47
39,48
39,49
39,50

<end>
